problems/csplib-prob015/SchursLemma-models/noch/O2/lingeling/model_1_2-3-16-solution000001.eprime-solution
language ESSENCE' 1.0

letting boxes_PartitionAsSet_ExplicitR6_ExplicitVarSizeWithDummy be
        [[1, 2, 4, 8, 11, 14, 17, 17, 17, 17, 17, 17, 17, 17, 17, 17; int(1..16)],
         [3, 7, 15, 16, 17, 17, 17, 17, 17, 17, 17, 17, 17, 17, 17, 17; int(1..16)],
         [5, 6, 9, 10, 12, 13, 17, 17, 17, 17, 17, 17, 17, 17, 17, 17; int(1..16)]; int(1..3)]
