problems/csplib-prob015/SchursLemma-models/noch/O2/lingeling/model_1_2-3-16-solution000001.solution
language Essence 1.3

letting boxes be partition({1, 2, 4, 8, 11, 14}, {3, 7, 15, 16}, {5, 6, 9, 10, 12, 13})
